p cnf 430 1488
-191 41 0
-191 130 0
-191 -26 0
-191 14 0
-191 46 0
191 -41 -130 26 -14 -46 0
-192 -175 0
-192 -124 0
-192 67 0
-192 50 0
-192 -6 0
192 175 124 -67 -50 6 0
-193 133 0
-193 -15 0
-193 125 0
-193 -13 0
-193 -37 0
193 -133 15 -125 13 37 0
-194 -32 0
-194 -53 0
-194 -1 0
-194 75 0
-194 -79 0
194 32 53 1 -75 79 0
-195 111 0
-195 28 0
-195 -21 0
-195 158 0
-195 -35 0
195 -111 -28 21 -158 35 0
191 192 193 194 195 0
-196 -86 0
-196 119 0
-196 -140 0
-196 -133 0
-196 43 0
196 86 -119 140 133 -43 0
-197 99 0
-197 -52 0
-197 -96 0
-197 -140 0
-197 -133 0
197 -99 52 96 140 133 0
-198 188 0
-198 -90 0
-198 -20 0
-198 116 0
-198 97 0
198 -188 90 20 -116 -97 0
-199 88 0
-199 -4 0
-199 154 0
-199 -61 0
-199 70 0
199 -88 4 -154 61 -70 0
-200 -112 0
-200 -13 0
-200 89 0
-200 -174 0
-200 -183 0
200 112 13 -89 174 183 0
196 197 198 199 200 0
-201 -12 0
-201 158 0
-201 -25 0
-201 8 0
-201 117 0
201 12 -158 25 -8 -117 0
-202 -79 0
-202 -17 0
-202 -71 0
-202 -38 0
-202 -55 0
202 79 17 71 38 55 0
-203 -27 0
-203 -120 0
-203 -95 0
-203 -145 0
-203 62 0
203 27 120 95 145 -62 0
-204 -175 0
-204 55 0
-204 97 0
-204 -82 0
-204 50 0
204 175 -55 -97 82 -50 0
-205 185 0
-205 -22 0
-205 -120 0
-205 137 0
-205 99 0
205 -185 22 120 -137 -99 0
201 202 203 204 205 0
-206 -97 0
-206 29 0
-206 -115 0
-206 149 0
-206 123 0
206 97 -29 115 -149 -123 0
-207 47 0
-207 121 0
-207 -134 0
-207 76 0
-207 14 0
207 -47 -121 134 -76 -14 0
-208 156 0
-208 40 0
-208 -182 0
-208 185 0
-208 163 0
208 -156 -40 182 -185 -163 0
-209 162 0
-209 -9 0
-209 27 0
-209 -35 0
-209 163 0
209 -162 9 -27 35 -163 0
-210 117 0
-210 -63 0
-210 97 0
-210 67 0
-210 40 0
210 -117 63 -97 -67 -40 0
206 207 208 209 210 0
-211 190 0
-211 123 0
-211 168 0
-211 80 0
-211 -116 0
211 -190 -123 -168 -80 116 0
-212 163 0
-212 125 0
-212 -62 0
-212 -124 0
-212 -39 0
212 -163 -125 62 124 39 0
-213 179 0
-213 -96 0
-213 59 0
-213 125 0
-213 -40 0
213 -179 96 -59 -125 40 0
-214 -93 0
-214 118 0
-214 -157 0
-214 -153 0
-214 -20 0
214 93 -118 157 153 20 0
-215 137 0
-215 169 0
-215 -180 0
-215 73 0
-215 -60 0
215 -137 -169 180 -73 60 0
211 212 213 214 215 0
-216 -92 0
-216 -7 0
-216 166 0
-216 -32 0
-216 -136 0
216 92 7 -166 32 136 0
-217 -160 0
-217 94 0
-217 3 0
-217 53 0
-217 -89 0
217 160 -94 -3 -53 89 0
-218 -85 0
-218 -81 0
-218 -82 0
-218 -189 0
-218 153 0
218 85 81 82 189 -153 0
-219 -109 0
-219 188 0
-219 -129 0
-219 131 0
-219 44 0
219 109 -188 129 -131 -44 0
-220 -53 0
-220 23 0
-220 -130 0
-220 -12 0
-220 -160 0
220 53 -23 130 12 160 0
216 217 218 219 220 0
-221 78 0
-221 74 0
-221 -1 0
-221 16 0
-221 -3 0
221 -78 -74 1 -16 3 0
-222 146 0
-222 63 0
-222 -162 0
-222 -176 0
-222 -108 0
222 -146 -63 162 176 108 0
-223 99 0
-223 118 0
-223 55 0
-223 -22 0
-223 -3 0
223 -99 -118 -55 22 3 0
-224 -12 0
-224 -163 0
-224 -6 0
-224 73 0
-224 -7 0
224 12 163 6 -73 7 0
-225 -99 0
-225 -39 0
-225 138 0
-225 -32 0
-225 -12 0
225 99 39 -138 32 12 0
221 222 223 224 225 0
-226 -23 0
-226 -48 0
-226 158 0
-226 8 0
-226 77 0
226 23 48 -158 -8 -77 0
-227 1 0
-227 -19 0
-227 -89 0
-227 40 0
-227 106 0
227 -1 19 89 -40 -106 0
-228 151 0
-228 -125 0
-228 107 0
-228 -171 0
-228 -133 0
228 -151 125 -107 171 133 0
-229 -153 0
-229 -145 0
-229 45 0
-229 -115 0
-229 25 0
229 153 145 -45 115 -25 0
-230 -45 0
-230 -87 0
-230 97 0
-230 44 0
-230 -92 0
230 45 87 -97 -44 92 0
226 227 228 229 230 0
-231 -180 0
-231 -176 0
-231 -60 0
-231 -71 0
-231 83 0
231 180 176 60 71 -83 0
-232 91 0
-232 84 0
-232 165 0
-232 -70 0
-232 161 0
232 -91 -84 -165 70 -161 0
-233 -62 0
-233 -63 0
-233 -99 0
-233 138 0
-233 8 0
233 62 63 99 -138 -8 0
-234 -43 0
-234 -184 0
-234 -32 0
-234 -129 0
-234 126 0
234 43 184 32 129 -126 0
-235 -143 0
-235 27 0
-235 121 0
-235 16 0
-235 11 0
235 143 -27 -121 -16 -11 0
231 232 233 234 235 0
-236 37 0
-236 -87 0
-236 168 0
-236 46 0
-236 117 0
236 -37 87 -168 -46 -117 0
-237 181 0
-237 168 0
-237 -117 0
-237 -93 0
-237 173 0
237 -181 -168 117 93 -173 0
-238 -160 0
-238 -14 0
-238 54 0
-238 -120 0
-238 -133 0
238 160 14 -54 120 133 0
-239 28 0
-239 31 0
-239 159 0
-239 41 0
-239 -5 0
239 -28 -31 -159 -41 5 0
-240 -14 0
-240 97 0
-240 100 0
-240 -74 0
-240 10 0
240 14 -97 -100 74 -10 0
236 237 238 239 240 0
-241 -100 0
-241 -160 0
-241 -159 0
-241 -4 0
-241 -32 0
241 100 160 159 4 32 0
-242 133 0
-242 172 0
-242 -22 0
-242 164 0
-242 -137 0
242 -133 -172 22 -164 137 0
-243 -70 0
-243 33 0
-243 41 0
-243 134 0
-243 52 0
243 70 -33 -41 -134 -52 0
-244 -154 0
-244 -100 0
-244 -181 0
-244 -117 0
-244 83 0
244 154 100 181 117 -83 0
-245 -45 0
-245 131 0
-245 116 0
-245 -117 0
-245 33 0
245 45 -131 -116 117 -33 0
241 242 243 244 245 0
-246 46 0
-246 -148 0
-246 -165 0
-246 160 0
-246 17 0
246 -46 148 165 -160 -17 0
-247 135 0
-247 -95 0
-247 34 0
-247 32 0
-247 65 0
247 -135 95 -34 -32 -65 0
-248 -45 0
-248 -67 0
-248 49 0
-248 53 0
-248 139 0
248 45 67 -49 -53 -139 0
-249 -27 0
-249 -60 0
-249 47 0
-249 -26 0
-249 101 0
249 27 60 -47 26 -101 0
-250 98 0
-250 -127 0
-250 41 0
-250 -30 0
-250 153 0
250 -98 127 -41 30 -153 0
246 247 248 249 250 0
-251 -42 0
-251 -64 0
-251 -168 0
-251 188 0
-251 -36 0
251 42 64 168 -188 36 0
-252 -88 0
-252 112 0
-252 15 0
-252 -101 0
-252 43 0
252 88 -112 -15 101 -43 0
-253 -44 0
-253 -37 0
-253 66 0
-253 3 0
-253 117 0
253 44 37 -66 -3 -117 0
-254 103 0
-254 35 0
-254 77 0
-254 91 0
-254 -165 0
254 -103 -35 -77 -91 165 0
-255 -4 0
-255 138 0
-255 89 0
-255 10 0
-255 -78 0
255 4 -138 -89 -10 78 0
251 252 253 254 255 0
-256 143 0
-256 19 0
-256 -78 0
-256 43 0
-256 -74 0
256 -143 -19 78 -43 74 0
-257 -95 0
-257 -6 0
-257 -137 0
-257 -138 0
-257 -98 0
257 95 6 137 138 98 0
-258 10 0
-258 -128 0
-258 94 0
-258 27 0
-258 127 0
258 -10 128 -94 -27 -127 0
-259 104 0
-259 -88 0
-259 -11 0
-259 53 0
-259 -63 0
259 -104 88 11 -53 63 0
-260 -178 0
-260 -137 0
-260 -56 0
-260 161 0
-260 -124 0
260 178 137 56 -161 124 0
256 257 258 259 260 0
-261 -82 0
-261 42 0
-261 -96 0
-261 -14 0
-261 -89 0
261 82 -42 96 14 89 0
-262 -45 0
-262 78 0
-262 -73 0
-262 -174 0
-262 121 0
262 45 -78 73 174 -121 0
-263 -84 0
-263 -139 0
-263 76 0
-263 -164 0
-263 27 0
263 84 139 -76 164 -27 0
-264 -36 0
-264 -179 0
-264 -66 0
-264 -120 0
-264 4 0
264 36 179 66 120 -4 0
-265 71 0
-265 -77 0
-265 90 0
-265 -123 0
-265 -9 0
265 -71 77 -90 123 9 0
261 262 263 264 265 0
-266 -8 0
-266 81 0
-266 -20 0
-266 -36 0
-266 -130 0
266 8 -81 20 36 130 0
-267 -137 0
-267 69 0
-267 -113 0
-267 -16 0
-267 -90 0
267 137 -69 113 16 90 0
-268 110 0
-268 63 0
-268 -70 0
-268 -60 0
-268 143 0
268 -110 -63 70 60 -143 0
-269 19 0
-269 134 0
-269 144 0
-269 50 0
-269 -44 0
269 -19 -134 -144 -50 44 0
-270 49 0
-270 90 0
-270 74 0
-270 -25 0
-270 97 0
270 -49 -90 -74 25 -97 0
266 267 268 269 270 0
-271 88 0
-271 83 0
-271 -150 0
-271 3 0
-271 37 0
271 -88 -83 150 -3 -37 0
-272 -59 0
-272 39 0
-272 -40 0
-272 -8 0
-272 29 0
272 59 -39 40 8 -29 0
-273 -68 0
-273 -46 0
-273 -9 0
-273 42 0
-273 -103 0
273 68 46 9 -42 103 0
-274 -68 0
-274 -27 0
-274 152 0
-274 132 0
-274 -81 0
274 68 27 -152 -132 81 0
-275 145 0
-275 -45 0
-275 150 0
-275 -65 0
-275 51 0
275 -145 45 -150 65 -51 0
271 272 273 274 275 0
-276 -4 0
-276 -75 0
-276 59 0
-276 -67 0
-276 34 0
276 4 75 -59 67 -34 0
-277 -68 0
-277 -167 0
-277 54 0
-277 142 0
-277 51 0
277 68 167 -54 -142 -51 0
-278 83 0
-278 -102 0
-278 -7 0
-278 -123 0
-278 157 0
278 -83 102 7 123 -157 0
-279 98 0
-279 144 0
-279 85 0
-279 -64 0
-279 -95 0
279 -98 -144 -85 64 95 0
-280 -79 0
-280 51 0
-280 -16 0
-280 15 0
-280 140 0
280 79 -51 16 -15 -140 0
276 277 278 279 280 0
-281 77 0
-281 -4 0
-281 1 0
-281 -162 0
-281 34 0
281 -77 4 -1 162 -34 0
-282 -50 0
-282 -125 0
-282 34 0
-282 51 0
-282 -96 0
282 50 125 -34 -51 96 0
-283 180 0
-283 163 0
-283 -18 0
-283 -27 0
-283 156 0
283 -180 -163 18 27 -156 0
-284 24 0
-284 -124 0
-284 -136 0
-284 -1 0
-284 141 0
284 -24 124 136 1 -141 0
-285 -64 0
-285 107 0
-285 52 0
-285 -38 0
-285 174 0
285 64 -107 -52 38 -174 0
281 282 283 284 285 0
-286 -83 0
-286 -32 0
-286 27 0
-286 -24 0
-286 -159 0
286 83 32 -27 24 159 0
-287 181 0
-287 74 0
-287 -28 0
-287 -98 0
-287 72 0
287 -181 -74 28 98 -72 0
-288 -76 0
-288 -164 0
-288 126 0
-288 29 0
-288 -166 0
288 76 164 -126 -29 166 0
-289 76 0
-289 -116 0
-289 89 0
-289 -151 0
-289 10 0
289 -76 116 -89 151 -10 0
-290 -184 0
-290 24 0
-290 131 0
-290 77 0
-290 -169 0
290 184 -24 -131 -77 169 0
286 287 288 289 290 0
-291 -38 0
-291 -75 0
-291 -118 0
-291 -83 0
-291 -84 0
291 38 75 118 83 84 0
-292 -24 0
-292 -148 0
-292 -135 0
-292 152 0
-292 25 0
292 24 148 135 -152 -25 0
-293 -141 0
-293 -138 0
-293 35 0
-293 130 0
-293 -95 0
293 141 138 -35 -130 95 0
-294 -123 0
-294 46 0
-294 132 0
-294 -181 0
-294 -117 0
294 123 -46 -132 181 117 0
-295 -51 0
-295 -177 0
-295 80 0
-295 124 0
-295 32 0
295 51 177 -80 -124 -32 0
291 292 293 294 295 0
-296 -44 0
-296 53 0
-296 19 0
-296 -96 0
-296 -151 0
296 44 -53 -19 96 151 0
-297 -106 0
-297 -97 0
-297 180 0
-297 116 0
-297 -190 0
297 106 97 -180 -116 190 0
-298 -166 0
-298 111 0
-298 2 0
-298 -90 0
-298 -124 0
298 166 -111 -2 90 124 0
-299 -35 0
-299 -132 0
-299 84 0
-299 -74 0
-299 72 0
299 35 132 -84 74 -72 0
-300 -57 0
-300 172 0
-300 15 0
-300 89 0
-300 -47 0
300 57 -172 -15 -89 47 0
296 297 298 299 300 0
-301 -175 0
-301 -60 0
-301 -142 0
-301 -100 0
-301 116 0
301 175 60 142 100 -116 0
-302 25 0
-302 -121 0
-302 40 0
-302 93 0
-302 9 0
302 -25 121 -40 -93 -9 0
-303 -102 0
-303 162 0
-303 39 0
-303 87 0
-303 -68 0
303 102 -162 -39 -87 68 0
-304 142 0
-304 -129 0
-304 180 0
-304 188 0
-304 -85 0
304 -142 129 -180 -188 85 0
-305 -78 0
-305 34 0
-305 -117 0
-305 165 0
-305 -53 0
305 78 -34 117 -165 53 0
301 302 303 304 305 0
-306 -145 0
-306 -52 0
-306 40 0
-306 -42 0
-306 -85 0
306 145 52 -40 42 85 0
-307 52 0
-307 -70 0
-307 91 0
-307 -15 0
-307 153 0
307 -52 70 -91 15 -153 0
-308 -23 0
-308 95 0
-308 -32 0
-308 42 0
-308 22 0
308 23 -95 32 -42 -22 0
-309 -168 0
-309 4 0
-309 112 0
-309 -78 0
-309 146 0
309 168 -4 -112 78 -146 0
-310 -11 0
-310 67 0
-310 179 0
-310 -188 0
-310 -71 0
310 11 -67 -179 188 71 0
306 307 308 309 310 0
-311 18 0
-311 -170 0
-311 -179 0
-311 41 0
-311 -14 0
311 -18 170 179 -41 14 0
-312 -102 0
-312 51 0
-312 48 0
-312 -25 0
-312 -145 0
312 102 -51 -48 25 145 0
-313 -157 0
-313 -133 0
-313 -4 0
-313 -30 0
-313 190 0
313 157 133 4 30 -190 0
-314 -137 0
-314 -18 0
-314 -53 0
-314 158 0
-314 60 0
314 137 18 53 -158 -60 0
-315 129 0
-315 128 0
-315 -36 0
-315 -1 0
-315 -172 0
315 -129 -128 36 1 172 0
311 312 313 314 315 0
-316 50 0
-316 189 0
-316 39 0
-316 -48 0
-316 77 0
316 -50 -189 -39 48 -77 0
-317 190 0
-317 148 0
-317 -98 0
-317 -164 0
-317 162 0
317 -190 -148 98 164 -162 0
-318 157 0
-318 -174 0
-318 62 0
-318 -51 0
-318 175 0
318 -157 174 -62 51 -175 0
-319 181 0
-319 137 0
-319 -145 0
-319 138 0
-319 117 0
319 -181 -137 145 -138 -117 0
-320 77 0
-320 -107 0
-320 172 0
-320 86 0
-320 -73 0
320 -77 107 -172 -86 73 0
316 317 318 319 320 0
-321 -43 0
-321 -133 0
-321 189 0
-321 66 0
-321 57 0
321 43 133 -189 -66 -57 0
-322 77 0
-322 -115 0
-322 -53 0
-322 149 0
-322 165 0
322 -77 115 53 -149 -165 0
-323 166 0
-323 -159 0
-323 -63 0
-323 -180 0
-323 8 0
323 -166 159 63 180 -8 0
-324 -168 0
-324 -34 0
-324 -126 0
-324 92 0
-324 -4 0
324 168 34 126 -92 4 0
-325 -92 0
-325 -182 0
-325 -67 0
-325 -72 0
-325 -145 0
325 92 182 67 72 145 0
321 322 323 324 325 0
-326 -56 0
-326 -158 0
-326 174 0
-326 -16 0
-326 -36 0
326 56 158 -174 16 36 0
-327 125 0
-327 -44 0
-327 -107 0
-327 127 0
-327 148 0
327 -125 44 107 -127 -148 0
-328 -169 0
-328 -55 0
-328 -38 0
-328 175 0
-328 135 0
328 169 55 38 -175 -135 0
-329 16 0
-329 -137 0
-329 -56 0
-329 -91 0
-329 38 0
329 -16 137 56 91 -38 0
-330 30 0
-330 102 0
-330 138 0
-330 -57 0
-330 74 0
330 -30 -102 -138 57 -74 0
326 327 328 329 330 0
-331 87 0
-331 -111 0
-331 165 0
-331 -115 0
-331 40 0
331 -87 111 -165 115 -40 0
-332 -31 0
-332 -67 0
-332 105 0
-332 -183 0
-332 10 0
332 31 67 -105 183 -10 0
-333 126 0
-333 76 0
-333 60 0
-333 157 0
-333 -136 0
333 -126 -76 -60 -157 136 0
-334 -184 0
-334 -187 0
-334 92 0
-334 107 0
-334 -43 0
334 184 187 -92 -107 43 0
-335 -13 0
-335 57 0
-335 -107 0
-335 -159 0
-335 143 0
335 13 -57 107 159 -143 0
331 332 333 334 335 0
-336 -151 0
-336 81 0
-336 -42 0
-336 -20 0
-336 101 0
336 151 -81 42 20 -101 0
-337 -48 0
-337 74 0
-337 10 0
-337 139 0
-337 40 0
337 48 -74 -10 -139 -40 0
-338 26 0
-338 21 0
-338 -8 0
-338 143 0
-338 -25 0
338 -26 -21 8 -143 25 0
-339 108 0
-339 37 0
-339 169 0
-339 -128 0
-339 40 0
339 -108 -37 -169 128 -40 0
-340 -56 0
-340 146 0
-340 -128 0
-340 172 0
-340 -84 0
340 56 -146 128 -172 84 0
336 337 338 339 340 0
-341 141 0
-341 56 0
-341 -95 0
-341 -168 0
-341 -148 0
341 -141 -56 95 168 148 0
-342 146 0
-342 102 0
-342 151 0
-342 130 0
-342 18 0
342 -146 -102 -151 -130 -18 0
-343 59 0
-343 84 0
-343 31 0
-343 86 0
-343 97 0
343 -59 -84 -31 -86 -97 0
-344 -81 0
-344 62 0
-344 -1 0
-344 -49 0
-344 -20 0
344 81 -62 1 49 20 0
-345 32 0
-345 -123 0
-345 -96 0
-345 183 0
-345 152 0
345 -32 123 96 -183 -152 0
341 342 343 344 345 0
-346 -159 0
-346 -74 0
-346 -42 0
-346 -107 0
-346 188 0
346 159 74 42 107 -188 0
-347 -177 0
-347 91 0
-347 24 0
-347 -150 0
-347 -163 0
347 177 -91 -24 150 163 0
-348 -132 0
-348 -63 0
-348 113 0
-348 -169 0
-348 40 0
348 132 63 -113 169 -40 0
-349 169 0
-349 -87 0
-349 104 0
-349 -11 0
-349 -181 0
349 -169 87 -104 11 181 0
-350 -85 0
-350 -48 0
-350 -100 0
-350 -37 0
-350 -41 0
350 85 48 100 37 41 0
346 347 348 349 350 0
-351 150 0
-351 -151 0
-351 32 0
-351 97 0
-351 -75 0
351 -150 151 -32 -97 75 0
-352 30 0
-352 -163 0
-352 184 0
-352 95 0
-352 -54 0
352 -30 163 -184 -95 54 0
-353 54 0
-353 45 0
-353 159 0
-353 -161 0
-353 -103 0
353 -54 -45 -159 161 103 0
-354 56 0
-354 -176 0
-354 -115 0
-354 181 0
-354 54 0
354 -56 176 115 -181 -54 0
-355 176 0
-355 17 0
-355 -187 0
-355 -100 0
-355 -104 0
355 -176 -17 187 100 104 0
351 352 353 354 355 0
-356 101 0
-356 168 0
-356 -99 0
-356 -38 0
-356 145 0
356 -101 -168 99 38 -145 0
-357 -156 0
-357 94 0
-357 -42 0
-357 -64 0
-357 143 0
357 156 -94 42 64 -143 0
-358 -74 0
-358 -108 0
-358 153 0
-358 183 0
-358 7 0
358 74 108 -153 -183 -7 0
-359 160 0
-359 3 0
-359 -13 0
-359 43 0
-359 11 0
359 -160 -3 13 -43 -11 0
-360 65 0
-360 -125 0
-360 -75 0
-360 -47 0
-360 -94 0
360 -65 125 75 47 94 0
356 357 358 359 360 0
-361 -120 0
-361 -66 0
-361 -12 0
-361 -86 0
-361 155 0
361 120 66 12 86 -155 0
-362 -48 0
-362 46 0
-362 77 0
-362 53 0
-362 15 0
362 48 -46 -77 -53 -15 0
-363 147 0
-363 -125 0
-363 -21 0
-363 -132 0
-363 -13 0
363 -147 125 21 132 13 0
-364 -168 0
-364 -99 0
-364 101 0
-364 -29 0
-364 -52 0
364 168 99 -101 29 52 0
-365 -127 0
-365 77 0
-365 -25 0
-365 14 0
-365 -146 0
365 127 -77 25 -14 146 0
361 362 363 364 365 0
-366 -176 0
-366 106 0
-366 -84 0
-366 -20 0
-366 -148 0
366 176 -106 84 20 148 0
-367 -17 0
-367 103 0
-367 -142 0
-367 72 0
-367 155 0
367 17 -103 142 -72 -155 0
-368 -83 0
-368 -82 0
-368 156 0
-368 -112 0
-368 90 0
368 83 82 -156 112 -90 0
-369 55 0
-369 -8 0
-369 109 0
-369 -53 0
-369 161 0
369 -55 8 -109 53 -161 0
-370 -84 0
-370 148 0
-370 106 0
-370 -54 0
-370 185 0
370 84 -148 -106 54 -185 0
366 367 368 369 370 0
-371 175 0
-371 -17 0
-371 50 0
-371 -16 0
-371 -149 0
371 -175 17 -50 16 149 0
-372 170 0
-372 92 0
-372 -83 0
-372 117 0
-372 -108 0
372 -170 -92 83 -117 108 0
-373 -140 0
-373 162 0
-373 160 0
-373 33 0
-373 -118 0
373 140 -162 -160 -33 118 0
-374 -154 0
-374 28 0
-374 131 0
-374 -87 0
-374 53 0
374 154 -28 -131 87 -53 0
-375 55 0
-375 57 0
-375 99 0
-375 31 0
-375 -134 0
375 -55 -57 -99 -31 134 0
371 372 373 374 375 0
-376 1 0
-376 -15 0
-376 97 0
-376 -25 0
-376 177 0
376 -1 15 -97 25 -177 0
-377 111 0
-377 -87 0
-377 -26 0
-377 -82 0
-377 155 0
377 -111 87 26 82 -155 0
-378 -25 0
-378 155 0
-378 51 0
-378 -7 0
-378 144 0
378 25 -155 -51 7 -144 0
-379 44 0
-379 160 0
-379 -169 0
-379 184 0
-379 122 0
379 -44 -160 169 -184 -122 0
-380 73 0
-380 43 0
-380 -157 0
-380 -87 0
-380 124 0
380 -73 -43 157 87 -124 0
376 377 378 379 380 0
-381 -134 0
-381 173 0
-381 8 0
-381 -181 0
-381 -34 0
381 134 -173 -8 181 34 0
-382 -163 0
-382 28 0
-382 159 0
-382 -41 0
-382 102 0
382 163 -28 -159 41 -102 0
-383 -170 0
-383 48 0
-383 79 0
-383 -124 0
-383 118 0
383 170 -48 -79 124 -118 0
-384 23 0
-384 116 0
-384 179 0
-384 143 0
-384 158 0
384 -23 -116 -179 -143 -158 0
-385 138 0
-385 -132 0
-385 -165 0
-385 -60 0
-385 2 0
385 -138 132 165 60 -2 0
381 382 383 384 385 0
-386 -80 0
-386 154 0
-386 -54 0
-386 -93 0
-386 -175 0
386 80 -154 54 93 175 0
-387 140 0
-387 -155 0
-387 -67 0
-387 59 0
-387 75 0
387 -140 155 67 -59 -75 0
-388 46 0
-388 -179 0
-388 165 0
-388 92 0
-388 -7 0
388 -46 179 -165 -92 7 0
-389 106 0
-389 34 0
-389 -155 0
-389 -25 0
-389 23 0
389 -106 -34 155 25 -23 0
-390 16 0
-390 171 0
-390 -39 0
-390 -136 0
-390 -94 0
390 -16 -171 39 136 94 0
386 387 388 389 390 0
-391 -120 0
-391 105 0
-391 -153 0
-391 152 0
-391 7 0
391 120 -105 153 -152 -7 0
-392 -158 0
-392 -59 0
-392 -82 0
-392 26 0
-392 119 0
392 158 59 82 -26 -119 0
-393 -175 0
-393 -100 0
-393 14 0
-393 105 0
-393 -122 0
393 175 100 -14 -105 122 0
-394 37 0
-394 -88 0
-394 71 0
-394 97 0
-394 -143 0
394 -37 88 -71 -97 143 0
-395 35 0
-395 186 0
-395 -64 0
-395 27 0
-395 -113 0
395 -35 -186 64 -27 113 0
391 392 393 394 395 0
-396 -19 0
-396 -94 0
-396 74 0
-396 -33 0
-396 -18 0
396 19 94 -74 33 18 0
-397 -55 0
-397 169 0
-397 186 0
-397 129 0
-397 92 0
397 55 -169 -186 -129 -92 0
-398 -182 0
-398 -37 0
-398 140 0
-398 116 0
-398 142 0
398 182 37 -140 -116 -142 0
-399 62 0
-399 176 0
-399 -121 0
-399 -153 0
-399 -136 0
399 -62 -176 121 153 136 0
-400 -179 0
-400 -115 0
-400 81 0
-400 -157 0
-400 -4 0
400 179 115 -81 157 4 0
396 397 398 399 400 0
-401 -93 0
-401 -120 0
-401 -72 0
-401 34 0
-401 -24 0
401 93 120 72 -34 24 0
-402 -11 0
-402 113 0
-402 -107 0
-402 53 0
-402 46 0
402 11 -113 107 -53 -46 0
-403 -158 0
-403 34 0
-403 -40 0
-403 -186 0
-403 113 0
403 158 -34 40 186 -113 0
-404 168 0
-404 27 0
-404 164 0
-404 -72 0
-404 32 0
404 -168 -27 -164 72 -32 0
-405 166 0
-405 55 0
-405 -124 0
-405 -142 0
-405 -48 0
405 -166 -55 124 142 48 0
401 402 403 404 405 0
-406 168 0
-406 -59 0
-406 -162 0
-406 -122 0
-406 190 0
406 -168 59 162 122 -190 0
-407 55 0
-407 76 0
-407 -165 0
-407 -78 0
-407 -8 0
407 -55 -76 165 78 8 0
-408 114 0
-408 175 0
-408 68 0
-408 -189 0
-408 -1 0
408 -114 -175 -68 189 1 0
-409 -25 0
-409 -125 0
-409 -83 0
-409 -18 0
-409 -57 0
409 25 125 83 18 57 0
-410 133 0
-410 -47 0
-410 94 0
-410 -36 0
-410 -106 0
410 -133 47 -94 36 106 0
406 407 408 409 410 0
-411 -128 0
-411 -12 0
-411 142 0
-411 -178 0
-411 -52 0
411 128 12 -142 178 52 0
-412 15 0
-412 74 0
-412 -111 0
-412 -84 0
-412 -49 0
412 -15 -74 111 84 49 0
-413 -126 0
-413 55 0
-413 -41 0
-413 -179 0
-413 127 0
413 126 -55 41 179 -127 0
-414 -4 0
-414 -76 0
-414 47 0
-414 -182 0
-414 27 0
414 4 76 -47 182 -27 0
-415 -190 0
-415 -90 0
-415 -58 0
-415 110 0
-415 -121 0
415 190 90 58 -110 121 0
411 412 413 414 415 0
-416 -171 0
-416 10 0
-416 -2 0
-416 186 0
-416 64 0
416 171 -10 2 -186 -64 0
-417 -76 0
-417 -151 0
-417 -178 0
-417 -4 0
-417 17 0
417 76 151 178 4 -17 0
-418 -120 0
-418 -39 0
-418 -49 0
-418 -153 0
-418 -111 0
418 120 39 49 153 111 0
-419 18 0
-419 14 0
-419 151 0
-419 -72 0
-419 -168 0
419 -18 -14 -151 72 168 0
-420 12 0
-420 -48 0
-420 51 0
-420 165 0
-420 -83 0
420 -12 48 -51 -165 83 0
416 417 418 419 420 0
-421 -177 0
-421 145 0
-421 125 0
-421 -9 0
-421 -142 0
421 177 -145 -125 9 142 0
-422 8 0
-422 -49 0
-422 -109 0
-422 -52 0
-422 -165 0
422 -8 49 109 52 165 0
-423 170 0
-423 93 0
-423 103 0
-423 -146 0
-423 -70 0
423 -170 -93 -103 146 70 0
-424 -9 0
-424 -43 0
-424 -67 0
-424 65 0
-424 81 0
424 9 43 67 -65 -81 0
-425 24 0
-425 177 0
-425 6 0
-425 -17 0
-425 114 0
425 -24 -177 -6 17 -114 0
421 422 423 424 425 0
-426 25 0
-426 -164 0
-426 72 0
-426 104 0
-426 -145 0
426 -25 164 -72 -104 145 0
-427 -59 0
-427 -20 0
-427 82 0
-427 -129 0
-427 24 0
427 59 20 -82 129 -24 0
-428 59 0
-428 -180 0
-428 -189 0
-428 149 0
-428 -53 0
428 -59 180 189 -149 53 0
-429 -69 0
-429 -98 0
-429 110 0
-429 44 0
-429 -33 0
429 69 98 -110 -44 33 0
-430 -65 0
-430 89 0
-430 -28 0
-430 6 0
-430 -24 0
430 65 -89 28 -6 24 0
426 427 428 429 430 0
